Minimize
  - 6 y_0 - 8 y_1 - 5 y_2 - 9 y_3 - 2 y_4 - 5 y_5 - 7 y_6 - 3 y_7 - 6 y_8
   - 7 y_9 - 10 y_10 - 8 y_11 - 5 y_12 - 2 y_13 - 2 y_14 - 12 y_15 - 8 y_16
   - 4 y_17 - 8 y_18 - 6 y_19 - 8 y_20 - 9 y_21 - 6 y_22 - 9 y_23 - 10 y_25
   - y_26 - 7 y_27 - 8 y_28 - 4 y_29 - 6 y_30 - 9 y_31 - 6 y_32 - 3 y_33
   - 9 y_34 - 9 y_35 - 11 y_36 - 6 y_37 - 6 y_38 - 4 y_39 - 10 y_40
   - 10 y_41 - 9 y_42 - 4 y_43 - 6 y_44 - 3 y_45 - 7 y_46 - 9 y_47 - 5 y_48
   - 11 y_49 + 328 Constant
Subject To
 c_0: y_45 = 1
 c_1_0: y_0 + y_48 >= 1
 c_1_1: y_1 + y_35 >= 1
 c_1_2: y_2 + y_43 >= 1
 c_1_3: y_3 >= 1
 c_1_4: y_4 >= 1
 c_1_5: y_5 + y_12 + y_22 >= 1
 c_1_6: y_6 + y_46 >= 1
 c_1_7: y_7 + y_45 >= 1
 c_1_8: y_8 >= 1
 c_1_9: y_9 + y_32 >= 1
 c_1_10: y_10 + y_35 >= 1
 c_1_11: y_11 + y_20 + y_47 >= 1
 c_1_12: y_5 + y_12 + y_22 >= 1
 c_1_13: y_13 + y_14 >= 1
 c_1_14: y_13 + y_14 + y_33 >= 1
 c_1_15: y_15 + y_36 >= 1
 c_1_16: y_16 >= 1
 c_1_17: y_17 >= 1
 c_1_18: y_18 >= 1
 c_1_19: y_19 + y_30 + y_37 + y_38 >= 1
 c_1_20: y_11 + y_20 + y_27 >= 1
 c_1_21: y_21 + y_25 + y_31 >= 1
 c_1_22: y_5 + y_12 + y_22 >= 1
 c_1_23: y_23 >= 1
 c_1_24: y_24 >= 1
 c_1_25: y_21 + y_25 + y_31 >= 1
 c_1_26: y_26 >= 1
 c_1_27: y_20 + y_27 + y_37 >= 1
 c_1_28: y_28 + y_42 >= 1
 c_1_29: y_29 >= 1
 c_1_30: y_19 + y_30 >= 1
 c_1_31: y_21 + y_25 + y_31 >= 1
 c_1_32: y_9 + y_32 >= 1
 c_1_33: y_14 + y_33 >= 1
 c_1_34: y_34 >= 1
 c_1_35: y_1 + y_10 + y_35 >= 1
 c_1_36: y_15 + y_36 >= 1
 c_1_37: y_19 + y_27 + y_37 + y_38 >= 1
 c_1_38: y_19 + y_37 + y_38 >= 1
 c_1_39: y_39 >= 1
 c_1_40: y_40 + y_41 >= 1
 c_1_41: y_40 + y_41 + y_49 >= 1
 c_1_42: y_28 + y_42 >= 1
 c_1_43: y_2 + y_43 >= 1
 c_1_44: y_44 >= 1
 c_1_45: y_7 + y_45 >= 1
 c_1_46: y_6 + y_46 >= 1
 c_1_47: y_11 + y_47 >= 1
 c_1_48: y_0 + y_48 >= 1
 c_1_49: y_41 + y_49 >= 1
Bounds
 Constant = 1
Binaries
 y_0 y_1 y_2 y_3 y_4 y_5 y_6 y_7 y_8 y_9 y_10 y_11 y_12 y_13 y_14 y_15 y_16
 y_17 y_18 y_19 y_20 y_21 y_22 y_23 y_24 y_25 y_26 y_27 y_28 y_29 y_30 y_31
 y_32 y_33 y_34 y_35 y_36 y_37 y_38 y_39 y_40 y_41 y_42 y_43 y_44 y_45 y_46
 y_47 y_48 y_49
End
